20 63
1 5
1 14
2 3
2 4
2 7
2 19
2 20
3 4
3 6
3 9
3 11
3 12
3 16
3 17
3 19
4 8
4 9
4 14
4 16
4 20
5 7
5 10
5 11
5 12
5 13
5 15
5 16
5 19
6 7
6 8
6 10
6 11
6 12
7 12
7 14
7 15
7 17
7 18
8 10
9 12
9 14
9 19
10 11
10 12
10 13
10 14
10 15
10 18
11 12
11 13
11 15
11 16
11 18
11 20
12 14
12 20
13 19
14 16
14 19
16 19
16 20
17 20
19 20
